(declare-fun temp559_1 () (_ BitVec 64))
(declare-fun temp559_2 () (_ BitVec 64))
(declare-fun var1118250 () (_ BitVec 64))
(declare-fun k!0 () Bool)
(declare-fun ARGNAME_input_NAMEEND_DIM () (_ BitVec 64))
(declare-fun temp559_3 () (_ BitVec 64))
(declare-fun var1118276 () (_ BitVec 64))
(declare-fun temp559_4 () (_ BitVec 64))
(declare-fun temp559_6 () (_ BitVec 64))
(declare-fun temp559_5 () (_ BitVec 64))
(declare-fun temp559_7 () (_ BitVec 64))
(declare-fun var1708342 () (_ BitVec 64))
(declare-fun var1773889 () (_ BitVec 64))
(declare-fun temp559_9 () (_ BitVec 64))
(declare-fun temp559_8 () (_ BitVec 64))
(declare-fun temp559_10 () (_ BitVec 64))
(declare-fun var2625846 () (_ BitVec 64))
(declare-fun var2691393 () (_ BitVec 64))
(declare-fun temp559_11 () (_ BitVec 64))
(declare-fun var3217130 () (_ BitVec 64))
(declare-fun var3217114 () (_ BitVec 64))
(declare-fun var2432440 () (_ BitVec 64))
(declare-fun temp559_14 () (_ BitVec 64))
(declare-fun temp559_13 () (_ BitVec 64))
(declare-fun temp559_15 () (_ BitVec 64))
(declare-fun var3739958 () (_ BitVec 64))
(declare-fun var3805505 () (_ BitVec 64))
(assert (= temp559_1 #x0000000000000040))
(assert (= var1118250
   (ite (bvsgt ARGNAME_input_NAMEEND_DIM temp559_1)
        #x0000000000000001
        #x0000000000000000)))
(assert (= temp559_2 #x0000000000000000))
(assert (= var1118250 temp559_2))
(assert (= temp559_3 #x0000000000000000))
(assert (= var1118276
   (ite (bvsgt ARGNAME_input_NAMEEND_DIM temp559_3)
        #x0000000000000001
        #x0000000000000000)))
(assert (= temp559_4 #x0000000000000000))
(assert (= var1118276 temp559_4))
(assert (= temp559_6 #x0000000000000000))
(assert (= temp559_5 temp559_6))
(assert (= temp559_7 #x0000000000000000))
(assert (= var1708342 temp559_7))
(assert (= var1773889 var1708342))
(assert (= temp559_9 #x0000000000000000))
(assert (= temp559_8 temp559_9))
(assert (= temp559_10 #x0000000000000000))
(assert (= var2625846 temp559_10))
(assert (= var2691393 var2625846))
(assert (= temp559_11 #x0000000000000000))
(assert (= var3217130 temp559_11))
(assert (= var3217114 var3217130))
(assert (= var2432440 var3217114))
(assert (= temp559_14 #x0000000000000000))
(assert (= temp559_13 temp559_14))
(assert (= temp559_15 #x0000000000000000))
(assert (= var3739958 temp559_15))
(assert (= var3805505 var3739958))
(model-add temp559_1 () (_ BitVec 64) #x0000000000000040)
(model-add temp559_2 () (_ BitVec 64) #x0000000000000000)
(model-add var1118250 () (_ BitVec 64) #x0000000000000000)
(model-del k!0)
(model-add ARGNAME_input_NAMEEND_DIM
           ()
           (_ BitVec 64)
           (ite (or k!0 (= #x0000000000000040 #x7fffffffffffffff))
                #x0000000000000040
                (bvadd #x0000000000000040 #x0000000000000001)))





